17	4
24	32	32	28	
0	0	0	0	0	3	2	3	4	
7	4	1	10	1	3	9	17	17	
4	5	3	5	5	3	7	8	10	
1	3	9	5	5	3	5	6	17	
3	1	9	10	1	3	9	11	12	
150	3	5	3	1	2	12	14	
200	2	2	5	10	3	14	17	17	
225	6	5	10	6	3	17	17	17	
125	6	3	1	9	3	17	17	17	
200	7	9	8	8	3	15	17	17	
75	4	9	6	5	3	13	14	17	
75	3	2	7	2	3	13	15	16	
9	4	9	10	1	3	17	17	17	
5	1	3	5	1	3	16	17	17	
7	2	7	2	6	3	17	17	17	
2	9	8	5	7	3	17	17	17	
0	0	0	0	0	0	
